c uprop, v00.0, 
c reading from data/prog648.c.cnf
c done reading: 0.002782
p cnf 115 385
-68 -72 0
-72 -74 0
68 72 74 0
68 74 -79 0
-68 -74 -79 0
-68 74 79 0
68 -74 79 0
72 -82 0
-82 -84 0
-72 82 84 0
-72 84 -89 0
72 -84 -89 0
72 84 89 0
-72 -84 89 0
82 -93 0
-82 93 0
-82 -97 0
82 97 0
93 -100 0
-93 100 0
-70 -93 0
70 93 0
-76 100 0
76 -100 0
-86 -100 0
86 100 0
-65 76 0
65 -76 0
-62 -76 0
62 76 0
-59 65 0
59 -65 0
-56 -65 0
56 65 0
-53 74 0
-53 68 0
53 -68 -74 0
-50 -68 -74 0
-50 68 74 0
50 68 -74 0
50 -68 74 0
47 -74 -84 0
47 -53 -84 0
47 -53 -74 0
-47 74 84 0
-47 53 84 0
-47 53 74 0
-44 -47 84 0
-44 -47 74 0
-44 -47 53 0
44 47 -84 0
44 47 -74 0
44 47 -53 0
44 -53 -74 -84 0
-44 53 74 84 0
41 -47 -84 0
-41 84 0
-41 47 0
-41 47 84 0
-38 -41 0
-38 -41 84 0
-38 -41 47 0
38 41 -84 0
38 41 -47 0
-38 47 84 0
35 -41 0
-35 41 0
38 -78 0
68 -78 0
-38 -68 78 0
-38 -68 -81 0
38 68 -81 0
-38 68 81 0
38 -68 81 0
-35 -74 88 0
-35 -78 88 0
-74 -78 88 0
35 74 -88 0
35 78 -88 0
74 78 -88 0
35 -88 -92 0
74 -88 -92 0
78 -88 -92 0
-35 88 92 0
-74 88 92 0
-78 88 92 0
-35 -74 -78 92 0
35 74 78 -92 0
-84 -88 95 0
84 -95 0
88 -95 0
84 88 -95 0
-95 -103 0
84 -95 -103 0
88 -95 -103 0
-84 95 103 0
-88 95 103 0
84 88 -103 0
-95 105 0
95 -105 0
92 -106 0
68 -106 0
-68 -92 106 0
-68 -92 -107 0
68 92 -107 0
68 -92 107 0
-68 92 107 0
-74 -103 108 0
-103 -106 108 0
-74 -106 108 0
74 103 -108 0
103 106 -108 0
74 106 -108 0
103 -108 -109 0
74 -108 -109 0
106 -108 -109 0
-103 108 109 0
-74 108 109 0
-106 108 109 0
-74 -103 -106 109 0
74 103 106 -109 0
-84 -105 0
-105 -108 0
-84 -108 0
-105 110 0
-84 110 0
-108 110 0
-84 -105 -108 110 0
84 105 108 -110 0
-68 -90 0
-50 -90 0
50 68 90 0
50 68 -94 0
-50 -68 -94 0
50 -68 94 0
-50 68 94 0
90 -98 0
-44 -98 0
44 -90 98 0
44 -90 -101 0
-44 90 -101 0
44 90 101 0
-44 -90 101 0
-71 98 0
-71 -81 0
71 81 -98 0
-77 81 -98 0
-77 -81 98 0
77 81 98 0
77 -81 -98 0
71 -87 0
-87 -107 0
-71 87 107 0
-66 -71 107 0
-66 71 -107 0
66 71 107 0
66 -71 -107 0
-63 87 0
-63 -109 0
63 -87 109 0
-60 -87 109 0
-60 87 -109 0
60 87 109 0
60 -87 -109 0
-57 63 0
-57 -110 0
57 -63 110 0
-54 -63 110 0
-54 63 -110 0
54 63 110 0
54 -63 -110 0
-51 57 0
51 -57 0
-48 -57 0
48 57 0
-45 51 0
45 -51 0
-42 -51 0
42 51 0
-39 45 0
39 -45 0
-45 -111 0
45 111 0
-36 39 0
36 -39 0
-39 -112 0
39 112 0
36 -113 0
-36 113 0
-36 -114 0
36 114 0
113 -115 0
-113 115 0
-33 -113 0
33 113 0
-30 -32 0
-29 -30 0
29 30 32 0
-28 29 32 0
-28 -29 -32 0
28 29 -32 0
28 -29 32 0
-27 30 0
-26 -27 0
26 27 -30 0
-24 26 -30 0
-24 -26 30 0
24 26 30 0
24 -26 -30 0
-23 27 0
23 -27 0
-22 -27 0
22 27 0
-21 23 0
21 -23 0
-20 -23 0
20 23 0
-19 21 0
19 -21 0
-21 -67 0
21 67 0
19 -73 0
-19 73 0
-19 -83 0
19 83 0
-18 73 0
18 -73 0
-17 -73 0
17 73 0
-16 32 0
16 -32 0
-29 31 0
29 -31 0
25 -26 0
-25 26 0
-15 31 0
-15 32 0
15 -31 -32 0
-14 -31 -32 0
-14 31 32 0
14 -31 32 0
14 31 -32 0
13 -25 -29 0
13 -15 -25 0
13 -15 -29 0
-13 25 29 0
-13 15 25 0
-13 15 29 0
-12 -13 25 0
-12 -13 29 0
-12 -13 15 0
12 13 -25 0
12 13 -29 0
12 13 -15 0
12 -15 -25 -29 0
-12 15 25 29 0
-13 -26 0
11 -26 0
11 -13 0
-11 13 26 0
-32 -96 0
-29 -96 0
29 32 96 0
29 32 -99 0
-29 -32 -99 0
29 -32 99 0
-29 32 99 0
-69 96 0
-26 -69 0
26 69 -96 0
26 -75 -96 0
-26 -75 96 0
26 75 96 0
-26 75 -96 0
69 -85 0
-16 -85 0
16 -69 85 0
16 -64 -69 0
-16 -64 69 0
16 64 69 0
-16 64 -69 0
-61 85 0
-14 -61 0
14 61 -85 0
14 -58 -85 0
-14 -58 85 0
14 58 85 0
-14 58 -85 0
-55 61 0
-12 -55 0
12 55 -61 0
12 -52 -61 0
-12 -52 61 0
12 52 61 0
-12 52 -61 0
-49 55 0
-11 -49 0
11 49 -55 0
11 -46 -55 0
-11 -46 55 0
11 46 55 0
-11 46 -55 0
-43 49 0
43 -49 0
-40 -49 0
40 49 0
-37 43 0
37 -43 0
-10 -43 0
10 43 0
-34 37 0
34 -37 0
-9 -37 0
9 37 0
-8 34 0
8 -34 0
-7 -34 0
7 34 0
-6 8 0
6 -8 0
-5 -8 0
5 8 0
-4 6 0
4 -6 0
-3 -6 0
3 6 0
-2 68 0
-2 32 0
2 -32 -68 0
-32 -68 0
32 68 0
-29 -50 80 0
-2 -50 80 0
-2 -29 80 0
29 50 -80 0
2 50 -80 0
2 29 -80 0
-50 80 0
-29 80 0
-2 80 0
-2 -29 -50 0
-26 -44 91 0
-44 -80 91 0
-26 -80 91 0
26 44 -91 0
44 80 -91 0
26 80 -91 0
44 -91 0
26 -91 0
80 -91 0
26 44 80 0
-16 -81 102 0
-81 -91 102 0
-16 -91 102 0
16 81 -102 0
81 91 -102 0
16 91 -102 0
-81 102 0
-16 102 0
-91 102 0
-16 -81 -91 0
-14 104 -107 0
-102 104 -107 0
-14 -102 104 0
14 -104 107 0
102 -104 107 0
14 102 -104 0
104 -107 0
-14 104 0
-102 104 0
-14 -102 -107 0
1 -12 -109 0
1 -104 -109 0
1 -12 -104 0
-1 12 109 0
-1 104 109 0
-1 12 104 0
1 -109 0
1 -12 0
1 -104 0
-12 -104 -109 0
-11 -110 0
-1 -110 0
-1 -11 0
1 11 110 0
